%chk=PATH_TO_SAVE_CHK_FILE.chk
%nproc=4
# hf/3-21g geom=connectivity

H2O

0 1
 O                 -0.23837902   -0.06553177   -0.00171601
 H                  0.72162098   -0.06553177   -0.00171601
 H                 -0.55883361    0.83940407   -0.00171601

 1 2 1.0 3 1.0
 2
 3

